
Gurobi 13.0.1 (linux64) logging started Fri Mar 27 02:39:23 2026

Set parameter LogFile to value "logs_sparse/100B_3F_robust_gamma_0d5_theta_0d05199999999999999_2026-03-27_02h38m56s.log"
Set parameter MIPGap to value 0.005
Set parameter OptimalityTol to value 0.005
Gurobi Optimizer version 13.0.1 build v13.0.1rc0 (linux64 - "Linux Mint 22")

CPU model: 12th Gen Intel(R) Core(TM) i7-12700, instruction set [SSE2|AVX|AVX2]
Thread count: 20 physical cores, 20 logical processors, using up to 20 threads

Non-default parameters:
TimeLimit  3600
SoftMemLimit  12
MIPGap  0.005
OptimalityTol  0.005

Optimize a model with 60721 rows, 1531121 columns and 4635098 nonzeros (Max)
Model fingerprint: 0x000c721f
Model has 1485111 linear objective coefficients
Variable types: 16121 continuous, 1515000 integer (1515000 binary)
Coefficient statistics:
  Matrix range     [3e-05, 1e+05]
  Objective range  [1e+00, 3e+03]
  Bounds range     [1e+00, 1e+05]
  RHS range        [1e+00, 1e+05]

Presolve removed 36714 rows and 1241081 columns
Presolve time: 0.65s
Presolved: 24007 rows, 290040 columns, 921754 nonzeros
Variable types: 6446 continuous, 283594 integer (283594 binary)
Found heuristic solution: objective -4.95506e+08
Performing another presolve...
Presolve added 0 rows and 10 columns
Presolve removed 18 rows and 0 columns
Presolve time: 1.21s
Deterministic concurrent LP optimizer: primal simplex, dual simplex, and barrier
Showing barrier log only...

Root barrier log...

Ordering time: 1.06s

Barrier statistics:
 AA' NZ     : 4.530e+05
 Factor NZ  : 4.046e+06 (roughly 160 MB of memory)
 Factor Ops : 1.382e+09 (less than 1 second per iteration)
 Threads    : 18

                  Objective                Residual
Iter       Primal          Dual         Primal    Dual     Compl     Time
   0  -2.66088906e+12  1.35047632e+09  1.05e+08 1.02e+03  2.69e+07     4s
   1  -2.94114625e+11  5.13123586e+09  1.16e+07 1.24e-11  3.07e+06     4s
   2  -9.55600070e+09  3.06702591e+09  3.77e+05 6.28e-11  1.04e+05     4s
   3  -8.18905071e+08  1.83448256e+09  3.27e+04 6.20e-11  1.18e+04     4s
   4   2.41591507e+08  9.95704499e+08  1.76e+03 3.04e-11  1.59e+03     4s
   5   2.94443372e+08  4.63646809e+08  2.85e+02 4.37e-11  3.24e+02     4s
   6   3.00551657e+08  3.64944601e+08  1.43e+02 4.81e-11  1.27e+02     4s
   7   3.04378604e+08  3.26923753e+08  5.81e+01 2.96e-11  4.54e+01     5s
   8   3.05302269e+08  3.23212449e+08  3.68e+01 5.80e-11  3.47e+01     5s
   9   3.06383176e+08  3.19421564e+08  1.53e+01 5.48e-11  2.38e+01     5s
  10   3.06565044e+08  3.13447308e+08  1.14e+01 9.39e-11  1.27e+01     5s
  11   3.06971439e+08  3.10043693e+08  3.22e+00 7.32e-11  5.43e+00     5s
  12   3.07078670e+08  3.08540352e+08  1.38e+00 1.18e-10  2.53e+00     5s
  13   3.07175391e+08  3.08034733e+08  1.57e-01 1.38e-10  1.45e+00     5s
  14   3.07209858e+08  3.07582952e+08  5.76e-02 1.11e-10  6.30e-01     5s
  15   3.07238602e+08  3.07420770e+08  1.41e-02 8.89e-11  3.08e-01     5s
  16   3.07246887e+08  3.07355554e+08  7.81e-03 1.02e-10  1.84e-01     5s
  17   3.07254867e+08  3.07313407e+08  2.82e-03 9.54e-11  9.88e-02     5s
  18   3.07257449e+08  3.07294488e+08  1.62e-03 1.32e-10  6.25e-02     5s
  19   3.07259458e+08  3.07280441e+08  8.12e-04 9.28e-11  3.54e-02     5s
  20   3.07261136e+08  3.07272162e+08  2.58e-04 1.00e-10  1.86e-02     5s
  21   3.07261656e+08  3.07267995e+08  1.23e-04 1.03e-10  1.07e-02     5s
  22   3.07261875e+08  3.07266231e+08  7.49e-05 1.17e-10  7.36e-03     6s
  23   3.07262030e+08  3.07264899e+08  4.62e-05 1.12e-10  4.84e-03     6s
  24   3.07262127e+08  3.07264355e+08  3.08e-05 1.26e-10  3.76e-03     6s
  25   3.07262158e+08  3.07263786e+08  2.61e-05 1.08e-10  2.75e-03     6s
  26   3.07262188e+08  3.07263680e+08  2.25e-05 1.30e-10  2.52e-03     6s
  27   3.07262262e+08  3.07263315e+08  1.31e-05 1.35e-10  1.78e-03     6s
  28   3.07262306e+08  3.07263106e+08  8.26e-06 1.33e-10  1.35e-03     6s
  29   3.07262335e+08  3.07262875e+08  4.61e-06 1.12e-10  9.12e-04     6s
  30   3.07262347e+08  3.07262735e+08  3.36e-06 1.22e-10  6.56e-04     6s
  31   3.07262363e+08  3.07262611e+08  1.56e-06 1.26e-10  4.18e-04     6s
  32   3.07262368e+08  3.07262529e+08  1.16e-06 1.05e-10  2.72e-04     6s
  33   3.07262372e+08  3.07262463e+08  8.74e-07 1.02e-10  1.53e-04     6s
  34   3.07262375e+08  3.07262460e+08  6.59e-07 1.14e-10  1.42e-04     6s
  35   3.07262376e+08  3.07262432e+08  5.97e-07 1.05e-10  9.44e-05     6s
  36   3.07262380e+08  3.07262408e+08  3.29e-07 1.05e-10  4.73e-05     6s
  37   3.07262384e+08  3.07262395e+08  8.46e-08 1.04e-10  1.93e-05     7s
  38   3.07262385e+08  3.07262394e+08  2.77e-08 9.89e-11  1.54e-05     7s
  39   3.07262385e+08  3.07262387e+08  1.79e-08 9.78e-11  3.29e-06     7s
  40   3.07262385e+08  3.07262386e+08  3.31e-09 9.65e-11  2.92e-07     7s
  41   3.07262386e+08  3.07262386e+08  5.17e-10 7.91e-11  2.18e-10     7s

Barrier solved model in 41 iterations and 6.83 seconds (8.90 work units)
Optimal objective 3.07262386e+08


Root crossover log...

    6939 DPushes remaining with DInf 0.0000000e+00                 7s
       0 DPushes remaining with DInf 0.0000000e+00                 7s

    4777 PPushes remaining with PInf 3.7211596e-04                 7s
       0 PPushes remaining with PInf 0.0000000e+00                 7s

  Push phase complete: Pinf 0.0000000e+00, Dinf 4.3214445e+04      7s


Root simplex log...

Iteration    Objective       Primal Inf.    Dual Inf.      Time
   11440    3.0726239e+08   0.000000e+00   4.321415e+04      7s
   12416    3.0726239e+08   0.000000e+00   0.000000e+00      7s
Crossover time: 0.51 seconds (0.54 work units)
Concurrent spin time: 0.88s (can be avoided by choosing Method=3)

Solved with barrier

Root relaxation: objective 3.072624e+08, 12416 iterations, 5.70 seconds (5.13 work units)
Total elapsed time = 8.23s (DegenMoves)

    Nodes    |    Current Node    |     Objective Bounds      |     Work
 Expl Unexpl |  Obj  Depth IntInf | Incumbent    BestBd   Gap | It/Node Time

     0     0 3.0726e+08    0 7427 -4.955e+08 3.0726e+08   162%     -    8s
H    0     0                    -1.68149e+08 3.0726e+08   283%     -    9s
H    0     0                    -1.40672e+08 3.0726e+08   318%     -    9s
H    0     0                    -1.06722e+08 3.0726e+08   388%     -    9s
H    0     0                    -9.82584e+07 3.0726e+08   413%     -   10s
H    0     0                    -9.82575e+07 3.0726e+08   413%     -   12s
H    0     0                    -9.82562e+07 3.0726e+08   413%     -   12s
H    0     0                    1.183364e+08 3.0726e+08   160%     -   13s
H    0     0                    2.240674e+08 3.0726e+08  37.1%     -   13s
H    0     0                    2.343058e+08 3.0726e+08  31.1%     -   16s
     0     0 3.0726e+08    0 7430 2.3431e+08 3.0726e+08  31.1%     -  326s
H    0     0                    2.400910e+08 3.0726e+08  28.0%     -  332s
H    0     0                    2.406029e+08 3.0726e+08  27.7%     -  369s
H    0     0                    2.406035e+08 3.0726e+08  27.7%     -  611s
     0     0 3.0726e+08    0 7489 2.4060e+08 3.0726e+08  27.7%     - 1636s
H    0     0                    2.543342e+08 3.0726e+08  20.8%     - 1641s
H    0     0                    2.544514e+08 3.0726e+08  20.8%     - 1646s
H    0     0                    2.575972e+08 3.0726e+08  19.3%     - 1676s
H    0     0                    2.608671e+08 3.0726e+08  17.8%     - 1739s
H    0     0                    2.608738e+08 3.0726e+08  17.8%     - 1744s
H    0     0                    2.614923e+08 3.0726e+08  17.5%     - 1815s
     0     0 3.0726e+08    0 7476 2.6149e+08 3.0726e+08  17.5%     - 2063s
     0     0 3.0726e+08    0 7485 2.6149e+08 3.0726e+08  17.5%     - 2096s
     0     0 3.0726e+08    0 7595 2.6149e+08 3.0726e+08  17.5%     - 2319s
     0     0 3.0726e+08    0 7604 2.6149e+08 3.0726e+08  17.5%     - 2402s
     0     0 3.0726e+08    0 7731 2.6149e+08 3.0726e+08  17.5%     - 2794s
     0     0 3.0726e+08    0 7731 2.6149e+08 3.0726e+08  17.5%     - 2857s
     0     0 3.0726e+08    0 7726 2.6149e+08 3.0726e+08  17.5%     - 3025s
     0     0 3.0726e+08    0 7726 2.6149e+08 3.0726e+08  17.5%     - 3027s
     0     0 3.0726e+08    0 7721 2.6149e+08 3.0726e+08  17.5%     - 3027s
     0     2 3.0726e+08    0 7709 2.6149e+08 3.0726e+08  17.5%     - 3260s
     1     3 3.0726e+08    1 7173 2.6149e+08 3.0726e+08  17.5% 91977 3376s

Cutting planes:
  MIR: 17
  Flow cover: 81
  RLT: 2358
  Relax-and-lift: 94

Explored 2 nodes (1352836 simplex iterations) in 3600.06 seconds (6808.69 work units)
Thread count was 20 (of 20 available processors)

Solution count 10: 2.61492e+08 2.60874e+08 2.60867e+08 ... 2.34306e+08

Time limit reached
Best objective 2.614922594425e+08, best bound 3.072599776128e+08, gap 17.5025%
